\ SCIP STATISTICS
\   Problem name     : rout
\   Variables        : 556 (300 binary, 15 integer, 0 implicit integer, 241 continuous)
\   Constraints      : 291
Minimize
 Obj: +1 x241
Subject to
 c1: +1 x241 -5.43 x242 -5.43 x243 -5.43 x244 -5.43 x245 -5.43 x246 -53.78 x247 -53.78 x248 -53.78 x249
  -53.78 x250 -53.78 x251 -23.36 x252 -23.36 x253 -23.36 x254 -23.36 x255 -23.36 x256 +74.52 x257 +74.52 x258
  +74.52 x259 +74.52 x260 +74.52 x261 +78.87 x262 +78.87 x263 +78.87 x264 +78.87 x265 +78.87 x266 +79.41 x267
  +79.41 x268 +79.41 x269 +79.41 x270 +79.41 x271 +84.3 x272 +84.3 x273 +84.3 x274 +84.3 x275 +84.3 x276
  +29.18 x277 +29.18 x278 +29.18 x279 +29.18 x280 +29.18 x281 +38.96 x282 +38.96 x283 +38.96 x284 +38.96 x285
  +38.96 x286 +69.92 x287 +69.92 x288 +69.92 x289 +69.92 x290 +69.92 x291 +51.45 x292 +51.45 x293 +51.45 x294
  +51.45 x295 +51.45 x296 +120.54 x297 +120.54 x298 +120.54 x299 +120.54 x300 +120.54 x301 +125.43 x302
  +125.43 x303 +125.43 x304 +125.43 x305 +125.43 x306 +108.05 x307 +108.05 x308 +108.05 x309 +108.05 x310
  +108.05 x311 +142.82 x312 +142.82 x313 +142.82 x314 +142.82 x315 +142.82 x316 +74.43 x317 +74.43 x318
  +74.43 x319 +74.43 x320 +74.43 x321 +83.13 x322 +83.13 x323 +83.13 x324 +83.13 x325 +83.13 x326 +93.99 x327
  +93.99 x328 +93.99 x329 +93.99 x330 +93.99 x331 +96.16 x332 +96.16 x333 +96.16 x334 +96.16 x335 +96.16 x336
  +48.09 x337 +48.09 x338 +48.09 x339 +48.09 x340 +48.09 x341 +56.24 x342 +56.24 x343 +56.24 x344 +56.24 x345
  +56.24 x346 +26.9 x347 +26.9 x348 +26.9 x349 +26.9 x350 +26.9 x351 +66.02 x352 +66.02 x353 +66.02 x354
  +66.02 x355 +66.02 x356 +94.53 x357 +94.53 x358 +94.53 x359 +94.53 x360 +94.53 x361 +96.71 x362 +96.71 x363
  +96.71 x364 +96.71 x365 +96.71 x366 +93.45 x367 +93.45 x368 +93.45 x369 +93.45 x370 +93.45 x371 +93.99 x372
  +93.99 x373 +93.99 x374 +93.99 x375 +93.99 x376 +22.76 x377 +22.76 x378 +22.76 x379 +22.76 x380 +22.76 x381
  +37.97 x382 +37.97 x383 +37.97 x384 +37.97 x385 +37.97 x386 +74.91 x387 +74.91 x388 +74.91 x389 +74.91 x390
  +74.91 x391 +47.75 x392 +47.75 x393 +47.75 x394 +47.75 x395 +47.75 x396 +85.38 x397 +85.38 x398 +85.38 x399
  +85.38 x400 +85.38 x401 +86.47 x402 +86.47 x403 +86.47 x404 +86.47 x405 +86.47 x406 +90.27 x407 +90.27 x408
  +90.27 x409 +90.27 x410 +90.27 x411 +76.69 x412 +76.69 x413 +76.69 x414 +76.69 x415 +76.69 x416 +87.17 x417
  +87.17 x418 +87.17 x419 +87.17 x420 +87.17 x421 +83.37 x422 +83.37 x423 +83.37 x424 +83.37 x425 +83.37 x426
  +38.27 x427 +38.27 x428 +38.27 x429 +38.27 x430 +38.27 x431 +75.76 x432 +75.76 x433 +75.76 x434 +75.76 x435
  +75.76 x436 +69.51 x437 +69.51 x438 +69.51 x439 +69.51 x440 +69.51 x441 +65.71 x442 +65.71 x443 +65.71 x444
  +65.71 x445 +65.71 x446 +20.62 x447 +20.62 x448 +20.62 x449 +20.62 x450 +20.62 x451 +53.22 x452 +53.22 x453
  +53.22 x454 +53.22 x455 +53.22 x456 +87.47 x457 +87.47 x458 +87.47 x459 +87.47 x460 +87.47 x461 +95.08 x462
  +95.08 x463 +95.08 x464 +95.08 x465 +95.08 x466 +39.66 x467 +39.66 x468 +39.66 x469 +39.66 x470 +39.66 x471
  +76.06 x472 +76.06 x473 +76.06 x474 +76.06 x475 +76.06 x476 +43.98 x477 +43.98 x478 +43.98 x479 +43.98 x480
  +43.98 x481 +46.7 x482 +46.7 x483 +46.7 x484 +46.7 x485 +46.7 x486 +29.31 x487 +29.31 x488 +29.31 x489
  +29.31 x490 +29.31 x491 +65.71 x492 +65.71 x493 +65.71 x494 +65.71 x495 +65.71 x496 +68.29 x497 +68.29 x498
  +68.29 x499 +68.29 x500 +68.29 x501 +71.01 x502 +71.01 x503 +71.01 x504 +71.01 x505 +71.01 x506 +40.59 x507
  +40.59 x508 +40.59 x509 +40.59 x510 +40.59 x511 +52 x512 +52 x513 +52 x514 +52 x515 +52 x516 +64.59 x517
  +64.59 x518 +64.59 x519 +64.59 x520 +64.59 x521 +62.96 x522 +62.96 x523 +62.96 x524 +62.96 x525 +62.96 x526
  +29.82 x527 +29.82 x528 +29.82 x529 +29.82 x530 +29.82 x531 +74.91 x532 +74.91 x533 +74.91 x534 +74.91 x535
  +74.91 x536 +62.18 x537 +62.18 x538 +62.18 x539 +62.18 x540 +62.18 x541 +67.07 x542 +67.07 x543 +67.07 x544
  +67.07 x545 +67.07 x546 +49.68 x547 +49.68 x548 +49.68 x549 +49.68 x550 +49.68 x551 +84.45 x552 +84.45 x553
  +84.45 x554 +84.45 x555 +84.45 x556 = +2375.25
 c2: +0.22 x242 +2.2 x247 +0.96 x252 +3.79 x257 +3.62 x262 +3.59 x267 +3.39 x272 +4.48 x277 +4.08 x282
  +2.82 x287 +3.57 x292 +5.19 x297 +4.99 x302 +5.71 x307 +4.28 x312 +4.99 x317 +4.64 x322 +4.19 x327 +4.11 x332
  +3.37 x337 +3.04 x342 +4.24 x347 +2.64 x352 +4.17 x357 +4.08 x362 +4.22 x367 +4.19 x372 +5.08 x377 +4.46 x382
  +2.95 x387 +4.06 x392 +3.99 x397 +3.95 x402 +3.79 x407 +4.35 x412 +3.46 x417 +3.62 x422 +5.46 x427 +3.93 x432
  +2.13 x437 +2.28 x442 +4.13 x447 +2.79 x452 +4.46 x457 +4.15 x462 +6.42 x467 +4.93 x472 +3.17 x477 +3.06 x482
  +3.77 x487 +2.28 x492 +2.88 x497 +2.77 x502 +4.02 x507 +3.55 x512 +3.37 x517 +3.44 x522 +4.79 x527 +2.95 x532
  +4.48 x537 +4.28 x542 +4.99 x547 +3.57 x552 <= +12.5
 c3: +0.22 x243 +2.2 x248 +0.96 x253 +3.79 x258 +3.62 x263 +3.59 x268 +3.39 x273 +4.48 x278 +4.08 x283
  +2.82 x288 +3.57 x293 +5.19 x298 +4.99 x303 +5.71 x308 +4.28 x313 +4.99 x318 +4.64 x323 +4.19 x328 +4.11 x333
  +3.37 x338 +3.04 x343 +4.24 x348 +2.64 x353 +4.17 x358 +4.08 x363 +4.22 x368 +4.19 x373 +5.08 x378 +4.46 x383
  +2.95 x388 +4.06 x393 +3.99 x398 +3.95 x403 +3.79 x408 +4.35 x413 +3.46 x418 +3.62 x423 +5.46 x428 +3.93 x433
  +2.13 x438 +2.28 x443 +4.13 x448 +2.79 x453 +4.46 x458 +4.15 x463 +6.42 x468 +4.93 x473 +3.17 x478 +3.06 x483
  +3.77 x488 +2.28 x493 +2.88 x498 +2.77 x503 +4.02 x508 +3.55 x513 +3.37 x518 +3.44 x523 +4.79 x528 +2.95 x533
  +4.48 x538 +4.28 x543 +4.99 x548 +3.57 x553 <= +12.5
 c4: +0.22 x244 +2.2 x249 +0.96 x254 +3.79 x259 +3.62 x264 +3.59 x269 +3.39 x274 +4.48 x279 +4.08 x284
  +2.82 x289 +3.57 x294 +5.19 x299 +4.99 x304 +5.71 x309 +4.28 x314 +4.99 x319 +4.64 x324 +4.19 x329 +4.11 x334
  +3.37 x339 +3.04 x344 +4.24 x349 +2.64 x354 +4.17 x359 +4.08 x364 +4.22 x369 +4.19 x374 +5.08 x379 +4.46 x384
  +2.95 x389 +4.06 x394 +3.99 x399 +3.95 x404 +3.79 x409 +4.35 x414 +3.46 x419 +3.62 x424 +5.46 x429 +3.93 x434
  +2.13 x439 +2.28 x444 +4.13 x449 +2.79 x454 +4.46 x459 +4.15 x464 +6.42 x469 +4.93 x474 +3.17 x479 +3.06 x484
  +3.77 x489 +2.28 x494 +2.88 x499 +2.77 x504 +4.02 x509 +3.55 x514 +3.37 x519 +3.44 x524 +4.79 x529 +2.95 x534
  +4.48 x539 +4.28 x544 +4.99 x549 +3.57 x554 <= +12.5
 c5: +0.22 x245 +2.2 x250 +0.96 x255 +3.79 x260 +3.62 x265 +3.59 x270 +3.39 x275 +4.48 x280 +4.08 x285
  +2.82 x290 +3.57 x295 +5.19 x300 +4.99 x305 +5.71 x310 +4.28 x315 +4.99 x320 +4.64 x325 +4.19 x330 +4.11 x335
  +3.37 x340 +3.04 x345 +4.24 x350 +2.64 x355 +4.17 x360 +4.08 x365 +4.22 x370 +4.19 x375 +5.08 x380 +4.46 x385
  +2.95 x390 +4.06 x395 +3.99 x400 +3.95 x405 +3.79 x410 +4.35 x415 +3.46 x420 +3.62 x425 +5.46 x430 +3.93 x435
  +2.13 x440 +2.28 x445 +4.13 x450 +2.79 x455 +4.46 x460 +4.15 x465 +6.42 x470 +4.93 x475 +3.17 x480 +3.06 x485
  +3.77 x490 +2.28 x495 +2.88 x500 +2.77 x505 +4.02 x510 +3.55 x515 +3.37 x520 +3.44 x525 +4.79 x530 +2.95 x535
  +4.48 x540 +4.28 x545 +4.99 x550 +3.57 x555 <= +12.5
 c6: +0.22 x246 +2.2 x251 +0.96 x256 +3.79 x261 +3.62 x266 +3.59 x271 +3.39 x276 +4.48 x281 +4.08 x286
  +2.82 x291 +3.57 x296 +5.19 x301 +4.99 x306 +5.71 x311 +4.28 x316 +4.99 x321 +4.64 x326 +4.19 x331 +4.11 x336
  +3.37 x341 +3.04 x346 +4.24 x351 +2.64 x356 +4.17 x361 +4.08 x366 +4.22 x371 +4.19 x376 +5.08 x381 +4.46 x386
  +2.95 x391 +4.06 x396 +3.99 x401 +3.95 x406 +3.79 x411 +4.35 x416 +3.46 x421 +3.62 x426 +5.46 x431 +3.93 x436
  +2.13 x441 +2.28 x446 +4.13 x451 +2.79 x456 +4.46 x461 +4.15 x466 +6.42 x471 +4.93 x476 +3.17 x481 +3.06 x486
  +3.77 x491 +2.28 x496 +2.88 x501 +2.77 x506 +4.02 x511 +3.55 x516 +3.37 x521 +3.44 x526 +4.79 x531 +2.95 x536
  +4.48 x541 +4.28 x546 +4.99 x551 +3.57 x556 <= +12.5
 c7: +1 x257 +1 x258 +1 x259 +1 x260 +1 x261 +1 x262 +1 x263 +1 x264 +1 x265 +1 x266 +1 x267 +1 x268 +1 x269
  +1 x270 +1 x271 +1 x272 +1 x273 +1 x274 +1 x275 +1 x276 <= +1
 c8: +1 x277 +1 x278 +1 x279 +1 x280 +1 x281 +1 x282 +1 x283 +1 x284 +1 x285 +1 x286 +1 x287 +1 x288 +1 x289
  +1 x290 +1 x291 +1 x292 +1 x293 +1 x294 +1 x295 +1 x296 <= +1
 c9: +1 x297 +1 x298 +1 x299 +1 x300 +1 x301 +1 x302 +1 x303 +1 x304 +1 x305 +1 x306 +1 x307 +1 x308 +1 x309
  +1 x310 +1 x311 +1 x312 +1 x313 +1 x314 +1 x315 +1 x316 <= +2
 c10: +1 x317 +1 x318 +1 x319 +1 x320 +1 x321 +1 x322 +1 x323 +1 x324 +1 x325 +1 x326 +1 x327 +1 x328
  +1 x329 +1 x330 +1 x331 +1 x332 +1 x333 +1 x334 +1 x335 +1 x336 <= +1
 c11: +1 x337 +1 x338 +1 x339 +1 x340 +1 x341 +1 x342 +1 x343 +1 x344 +1 x345 +1 x346 +1 x347 +1 x348
  +1 x349 +1 x350 +1 x351 +1 x352 +1 x353 +1 x354 +1 x355 +1 x356 <= +1
 c12: +1 x357 +1 x358 +1 x359 +1 x360 +1 x361 +1 x362 +1 x363 +1 x364 +1 x365 +1 x366 +1 x367 +1 x368
  +1 x369 +1 x370 +1 x371 +1 x372 +1 x373 +1 x374 +1 x375 +1 x376 <= +1
 c13: +1 x377 +1 x378 +1 x379 +1 x380 +1 x381 +1 x382 +1 x383 +1 x384 +1 x385 +1 x386 +1 x387 +1 x388
  +1 x389 +1 x390 +1 x391 +1 x392 +1 x393 +1 x394 +1 x395 +1 x396 <= +1
 c14: +1 x397 +1 x398 +1 x399 +1 x400 +1 x401 +1 x402 +1 x403 +1 x404 +1 x405 +1 x406 +1 x407 +1 x408
  +1 x409 +1 x410 +1 x411 +1 x412 +1 x413 +1 x414 +1 x415 +1 x416 <= +1
 c15: +1 x417 +1 x418 +1 x419 +1 x420 +1 x421 +1 x422 +1 x423 +1 x424 +1 x425 +1 x426 +1 x427 +1 x428
  +1 x429 +1 x430 +1 x431 +1 x432 +1 x433 +1 x434 +1 x435 +1 x436 <= +1
 c16: +1 x437 +1 x438 +1 x439 +1 x440 +1 x441 +1 x442 +1 x443 +1 x444 +1 x445 +1 x446 +1 x447 +1 x448
  +1 x449 +1 x450 +1 x451 +1 x452 +1 x453 +1 x454 +1 x455 +1 x456 <= +1
 c17: +1 x457 +1 x458 +1 x459 +1 x460 +1 x461 +1 x462 +1 x463 +1 x464 +1 x465 +1 x466 +1 x467 +1 x468
  +1 x469 +1 x470 +1 x471 +1 x472 +1 x473 +1 x474 +1 x475 +1 x476 <= +1
 c18: +1 x477 +1 x478 +1 x479 +1 x480 +1 x481 +1 x482 +1 x483 +1 x484 +1 x485 +1 x486 +1 x487 +1 x488
  +1 x489 +1 x490 +1 x491 +1 x492 +1 x493 +1 x494 +1 x495 +1 x496 <= +1
 c19: +1 x497 +1 x498 +1 x499 +1 x500 +1 x501 +1 x502 +1 x503 +1 x504 +1 x505 +1 x506 +1 x507 +1 x508
  +1 x509 +1 x510 +1 x511 +1 x512 +1 x513 +1 x514 +1 x515 +1 x516 <= +1
 c20: +1 x517 +1 x518 +1 x519 +1 x520 +1 x521 +1 x522 +1 x523 +1 x524 +1 x525 +1 x526 +1 x527 +1 x528
  +1 x529 +1 x530 +1 x531 +1 x532 +1 x533 +1 x534 +1 x535 +1 x536 <= +1
 c21: +1 x537 +1 x538 +1 x539 +1 x540 +1 x541 +1 x542 +1 x543 +1 x544 +1 x545 +1 x546 +1 x547 +1 x548
  +1 x549 +1 x550 +1 x551 +1 x552 +1 x553 +1 x554 +1 x555 +1 x556 <= +1
 c22: +1 x242 +1 x262 +1 x282 -1 x297 -1 x307 -1 x312 +1 x322 +1 x342 +1 x362 +1 x382 +1 x402 -1 x417
  -1 x427 -1 x432 -1 x437 -1 x447 -1 x452 -1 x457 -1 x467 -1 x472 +1 x482 -1 x497 -1 x507 -1 x512 +1 x522
  +1 x542 = +0
 c23: +1 x243 +1 x263 +1 x283 -1 x298 -1 x308 -1 x313 +1 x323 +1 x343 +1 x363 +1 x383 +1 x403 -1 x418
  -1 x428 -1 x433 -1 x438 -1 x448 -1 x453 -1 x458 -1 x468 -1 x473 +1 x483 -1 x498 -1 x508 -1 x513 +1 x523
  +1 x543 = +0
 c24: +1 x244 +1 x264 +1 x284 -1 x299 -1 x309 -1 x314 +1 x324 +1 x344 +1 x364 +1 x384 +1 x404 -1 x419
  -1 x429 -1 x434 -1 x439 -1 x449 -1 x454 -1 x459 -1 x469 -1 x474 +1 x484 -1 x499 -1 x509 -1 x514 +1 x524
  +1 x544 = +0
 c25: +1 x245 +1 x265 +1 x285 -1 x300 -1 x310 -1 x315 +1 x325 +1 x345 +1 x365 +1 x385 +1 x405 -1 x420
  -1 x430 -1 x435 -1 x440 -1 x450 -1 x455 -1 x460 -1 x470 -1 x475 +1 x485 -1 x500 -1 x510 -1 x515 +1 x525
  +1 x545 = +0
 c26: +1 x246 +1 x266 +1 x286 -1 x301 -1 x311 -1 x316 +1 x326 +1 x346 +1 x366 +1 x386 +1 x406 -1 x421
  -1 x431 -1 x436 -1 x441 -1 x451 -1 x456 -1 x461 -1 x471 -1 x476 +1 x486 -1 x501 -1 x511 -1 x516 +1 x526
  +1 x546 = +0
 c27: +1 x247 +1 x267 -1 x277 -1 x282 -1 x292 +1 x307 +1 x327 +1 x347 +1 x367 -1 x377 -1 x382 -1 x392
  -1 x397 -1 x402 -1 x412 +1 x427 +1 x447 +1 x467 +1 x487 +1 x507 +1 x527 +1 x547 = +0
 c28: +1 x248 +1 x268 -1 x278 -1 x283 -1 x293 +1 x308 +1 x328 +1 x348 +1 x368 -1 x378 -1 x383 -1 x393
  -1 x398 -1 x403 -1 x413 +1 x428 +1 x448 +1 x468 +1 x488 +1 x508 +1 x528 +1 x548 = +0
 c29: +1 x249 +1 x269 -1 x279 -1 x284 -1 x294 +1 x309 +1 x329 +1 x349 +1 x369 -1 x379 -1 x384 -1 x394
  -1 x399 -1 x404 -1 x414 +1 x429 +1 x449 +1 x469 +1 x489 +1 x509 +1 x529 +1 x549 = +0
 c30: +1 x250 +1 x270 -1 x280 -1 x285 -1 x295 +1 x310 +1 x330 +1 x350 +1 x370 -1 x380 -1 x385 -1 x395
  -1 x400 -1 x405 -1 x415 +1 x430 +1 x450 +1 x470 +1 x490 +1 x510 +1 x530 +1 x550 = +0
 c31: +1 x251 +1 x271 -1 x281 -1 x286 -1 x296 +1 x311 +1 x331 +1 x351 +1 x371 -1 x381 -1 x386 -1 x396
  -1 x401 -1 x406 -1 x416 +1 x431 +1 x451 +1 x471 +1 x491 +1 x511 +1 x531 +1 x551 = +0
 c32: +1 x252 -1 x257 -1 x262 -1 x267 +1 x292 +1 x312 -1 x317 -1 x322 -1 x327 -1 x337 -1 x342 -1 x347
  -1 x357 -1 x362 -1 x367 +1 x392 +1 x412 +1 x432 +1 x452 +1 x472 -1 x477 -1 x482 -1 x487 +1 x512 -1 x517
  -1 x522 -1 x527 -1 x537 -1 x542 -1 x547 = +0
 c33: +1 x253 -1 x258 -1 x263 -1 x268 +1 x293 +1 x313 -1 x318 -1 x323 -1 x328 -1 x338 -1 x343 -1 x348
  -1 x358 -1 x363 -1 x368 +1 x393 +1 x413 +1 x433 +1 x453 +1 x473 -1 x478 -1 x483 -1 x488 +1 x513 -1 x518
  -1 x523 -1 x528 -1 x538 -1 x543 -1 x548 = +0
 c34: +1 x254 -1 x259 -1 x264 -1 x269 +1 x294 +1 x314 -1 x319 -1 x324 -1 x329 -1 x339 -1 x344 -1 x349
  -1 x359 -1 x364 -1 x369 +1 x394 +1 x414 +1 x434 +1 x454 +1 x474 -1 x479 -1 x484 -1 x489 +1 x514 -1 x519
  -1 x524 -1 x529 -1 x539 -1 x544 -1 x549 = +0
 c35: +1 x255 -1 x260 -1 x265 -1 x270 +1 x295 +1 x315 -1 x320 -1 x325 -1 x330 -1 x340 -1 x345 -1 x350
  -1 x360 -1 x365 -1 x370 +1 x395 +1 x415 +1 x435 +1 x455 +1 x475 -1 x480 -1 x485 -1 x490 +1 x515 -1 x520
  -1 x525 -1 x530 -1 x540 -1 x545 -1 x550 = +0
 c36: +1 x256 -1 x261 -1 x266 -1 x271 +1 x296 +1 x316 -1 x321 -1 x326 -1 x331 -1 x341 -1 x346 -1 x351
  -1 x361 -1 x366 -1 x371 +1 x396 +1 x416 +1 x436 +1 x456 +1 x476 -1 x481 -1 x486 -1 x491 +1 x516 -1 x521
  -1 x526 -1 x531 -1 x541 -1 x546 -1 x551 = +0
 c37: -1 x1 -1 x21 -1 x36 +1 x46 +1 x51 +1 x56 -1 x66 -1 x81 -1 x96 -1 x111 -1 x126 +1 x136 +1 x141 +1 x146
  +1 x151 +1 x156 +1 x161 +1 x166 +1 x171 +1 x176 -1 x186 +1 x196 +1 x201 +1 x206 -1 x216 -1 x231 -1 x242
  -1 x262 -1 x282 -1 x302 -1 x322 -1 x342 -1 x362 -1 x382 -1 x402 -1 x422 -1 x442 -1 x462 -1 x482 -1 x502
  -1 x522 -1 x542 = +0
 c38: -1 x2 -1 x22 -1 x37 +1 x47 +1 x52 +1 x57 -1 x67 -1 x82 -1 x97 -1 x112 -1 x127 +1 x137 +1 x142 +1 x147
  +1 x152 +1 x157 +1 x162 +1 x167 +1 x172 +1 x177 -1 x187 +1 x197 +1 x202 +1 x207 -1 x217 -1 x232 -1 x243
  -1 x263 -1 x283 -1 x303 -1 x323 -1 x343 -1 x363 -1 x383 -1 x403 -1 x423 -1 x443 -1 x463 -1 x483 -1 x503
  -1 x523 -1 x543 = +0
 c39: -1 x3 -1 x23 -1 x38 +1 x48 +1 x53 +1 x58 -1 x68 -1 x83 -1 x98 -1 x113 -1 x128 +1 x138 +1 x143 +1 x148
  +1 x153 +1 x158 +1 x163 +1 x168 +1 x173 +1 x178 -1 x188 +1 x198 +1 x203 +1 x208 -1 x218 -1 x233 -1 x244
  -1 x264 -1 x284 -1 x304 -1 x324 -1 x344 -1 x364 -1 x384 -1 x404 -1 x424 -1 x444 -1 x464 -1 x484 -1 x504
  -1 x524 -1 x544 = +0
 c40: -1 x4 -1 x24 -1 x39 +1 x49 +1 x54 +1 x59 -1 x69 -1 x84 -1 x99 -1 x114 -1 x129 +1 x139 +1 x144 +1 x149
  +1 x154 +1 x159 +1 x164 +1 x169 +1 x174 +1 x179 -1 x189 +1 x199 +1 x204 +1 x209 -1 x219 -1 x234 -1 x245
  -1 x265 -1 x285 -1 x305 -1 x325 -1 x345 -1 x365 -1 x385 -1 x405 -1 x425 -1 x445 -1 x465 -1 x485 -1 x505
  -1 x525 -1 x545 = +0
 c41: -1 x5 -1 x25 -1 x40 +1 x50 +1 x55 +1 x60 -1 x70 -1 x85 -1 x100 -1 x115 -1 x130 +1 x140 +1 x145 +1 x150
  +1 x155 +1 x160 +1 x165 +1 x170 +1 x175 +1 x180 -1 x190 +1 x200 +1 x205 +1 x210 -1 x220 -1 x235 -1 x246
  -1 x266 -1 x286 -1 x306 -1 x326 -1 x346 -1 x366 -1 x386 -1 x406 -1 x426 -1 x446 -1 x466 -1 x486 -1 x506
  -1 x526 -1 x546 = +0
 c42: -1 x6 -1 x26 +1 x31 +1 x36 +1 x41 -1 x51 -1 x71 -1 x86 -1 x101 +1 x106 +1 x111 +1 x116 +1 x121 +1 x126
  +1 x131 -1 x141 -1 x156 -1 x171 -1 x191 -1 x201 -1 x221 -1 x236 -1 x247 -1 x267 -1 x287 -1 x307 -1 x327
  -1 x347 -1 x367 -1 x387 -1 x407 -1 x427 -1 x447 -1 x467 -1 x487 -1 x507 -1 x527 -1 x547 = +0
 c43: -1 x7 -1 x27 +1 x32 +1 x37 +1 x42 -1 x52 -1 x72 -1 x87 -1 x102 +1 x107 +1 x112 +1 x117 +1 x122 +1 x127
  +1 x132 -1 x142 -1 x157 -1 x172 -1 x192 -1 x202 -1 x222 -1 x237 -1 x248 -1 x268 -1 x288 -1 x308 -1 x328
  -1 x348 -1 x368 -1 x388 -1 x408 -1 x428 -1 x448 -1 x468 -1 x488 -1 x508 -1 x528 -1 x548 = +0
 c44: -1 x8 -1 x28 +1 x33 +1 x38 +1 x43 -1 x53 -1 x73 -1 x88 -1 x103 +1 x108 +1 x113 +1 x118 +1 x123 +1 x128
  +1 x133 -1 x143 -1 x158 -1 x173 -1 x193 -1 x203 -1 x223 -1 x238 -1 x249 -1 x269 -1 x289 -1 x309 -1 x329
  -1 x349 -1 x369 -1 x389 -1 x409 -1 x429 -1 x449 -1 x469 -1 x489 -1 x509 -1 x529 -1 x549 = +0
 c45: -1 x9 -1 x29 +1 x34 +1 x39 +1 x44 -1 x54 -1 x74 -1 x89 -1 x104 +1 x109 +1 x114 +1 x119 +1 x124 +1 x129
  +1 x134 -1 x144 -1 x159 -1 x174 -1 x194 -1 x204 -1 x224 -1 x239 -1 x250 -1 x270 -1 x290 -1 x310 -1 x330
  -1 x350 -1 x370 -1 x390 -1 x410 -1 x430 -1 x450 -1 x470 -1 x490 -1 x510 -1 x530 -1 x550 = +0
 c46: -1 x10 -1 x30 +1 x35 +1 x40 +1 x45 -1 x55 -1 x75 -1 x90 -1 x105 +1 x110 +1 x115 +1 x120 +1 x125
  +1 x130 +1 x135 -1 x145 -1 x160 -1 x175 -1 x195 -1 x205 -1 x225 -1 x240 -1 x251 -1 x271 -1 x291 -1 x311
  -1 x331 -1 x351 -1 x371 -1 x391 -1 x411 -1 x431 -1 x451 -1 x471 -1 x491 -1 x511 -1 x531 -1 x551 = +0
 c47: -1 x11 +1 x16 +1 x21 +1 x26 -1 x41 -1 x56 +1 x61 +1 x66 +1 x71 +1 x76 +1 x81 +1 x86 +1 x91 +1 x96
  +1 x101 -1 x116 -1 x131 -1 x146 -1 x161 -1 x176 +1 x181 +1 x186 +1 x191 -1 x206 +1 x211 +1 x216 +1 x221
  +1 x226 +1 x231 +1 x236 -1 x252 -1 x272 -1 x292 -1 x312 -1 x332 -1 x352 -1 x372 -1 x392 -1 x412 -1 x432
  -1 x452 -1 x472 -1 x492 -1 x512 -1 x532 -1 x552 = +0
 c48: -1 x12 +1 x17 +1 x22 +1 x27 -1 x42 -1 x57 +1 x62 +1 x67 +1 x72 +1 x77 +1 x82 +1 x87 +1 x92 +1 x97
  +1 x102 -1 x117 -1 x132 -1 x147 -1 x162 -1 x177 +1 x182 +1 x187 +1 x192 -1 x207 +1 x212 +1 x217 +1 x222
  +1 x227 +1 x232 +1 x237 -1 x253 -1 x273 -1 x293 -1 x313 -1 x333 -1 x353 -1 x373 -1 x393 -1 x413 -1 x433
  -1 x453 -1 x473 -1 x493 -1 x513 -1 x533 -1 x553 = +0
 c49: -1 x13 +1 x18 +1 x23 +1 x28 -1 x43 -1 x58 +1 x63 +1 x68 +1 x73 +1 x78 +1 x83 +1 x88 +1 x93 +1 x98
  +1 x103 -1 x118 -1 x133 -1 x148 -1 x163 -1 x178 +1 x183 +1 x188 +1 x193 -1 x208 +1 x213 +1 x218 +1 x223
  +1 x228 +1 x233 +1 x238 -1 x254 -1 x274 -1 x294 -1 x314 -1 x334 -1 x354 -1 x374 -1 x394 -1 x414 -1 x434
  -1 x454 -1 x474 -1 x494 -1 x514 -1 x534 -1 x554 = +0
 c50: -1 x14 +1 x19 +1 x24 +1 x29 -1 x44 -1 x59 +1 x64 +1 x69 +1 x74 +1 x79 +1 x84 +1 x89 +1 x94 +1 x99
  +1 x104 -1 x119 -1 x134 -1 x149 -1 x164 -1 x179 +1 x184 +1 x189 +1 x194 -1 x209 +1 x214 +1 x219 +1 x224
  +1 x229 +1 x234 +1 x239 -1 x255 -1 x275 -1 x295 -1 x315 -1 x335 -1 x355 -1 x375 -1 x395 -1 x415 -1 x435
  -1 x455 -1 x475 -1 x495 -1 x515 -1 x535 -1 x555 = +0
 c51: -1 x15 +1 x20 +1 x25 +1 x30 -1 x45 -1 x60 +1 x65 +1 x70 +1 x75 +1 x80 +1 x85 +1 x90 +1 x95 +1 x100
  +1 x105 -1 x120 -1 x135 -1 x150 -1 x165 -1 x180 +1 x185 +1 x190 +1 x195 -1 x210 +1 x215 +1 x220 +1 x225
  +1 x230 +1 x235 +1 x240 -1 x256 -1 x276 -1 x296 -1 x316 -1 x336 -1 x356 -1 x376 -1 x396 -1 x416 -1 x436
  -1 x456 -1 x476 -1 x496 -1 x516 -1 x536 -1 x556 = +0
 c52: +1 x1 -7 x242 <= +0
 c53: +1 x2 -7 x243 <= +0
 c54: +1 x3 -7 x244 <= +0
 c55: +1 x4 -7 x245 <= +0
 c56: +1 x5 -7 x246 <= +0
 c57: +1 x6 -7 x247 <= +0
 c58: +1 x7 -7 x248 <= +0
 c59: +1 x8 -7 x249 <= +0
 c60: +1 x9 -7 x250 <= +0
 c61: +1 x10 -7 x251 <= +0
 c62: +1 x11 -7 x252 <= +0
 c63: +1 x12 -7 x253 <= +0
 c64: +1 x13 -7 x254 <= +0
 c65: +1 x14 -7 x255 <= +0
 c66: +1 x15 -7 x256 <= +0
 c67: +1 x16 -7 x257 <= +0
 c68: +1 x17 -7 x258 <= +0
 c69: +1 x18 -7 x259 <= +0
 c70: +1 x19 -7 x260 <= +0
 c71: +1 x20 -7 x261 <= +0
 c72: +1 x21 -7 x262 <= +0
 c73: +1 x22 -7 x263 <= +0
 c74: +1 x23 -7 x264 <= +0
 c75: +1 x24 -7 x265 <= +0
 c76: +1 x25 -7 x266 <= +0
 c77: +1 x26 -7 x267 <= +0
 c78: +1 x27 -7 x268 <= +0
 c79: +1 x28 -7 x269 <= +0
 c80: +1 x29 -7 x270 <= +0
 c81: +1 x30 -7 x271 <= +0
 c82: +1 x31 -7 x277 <= +0
 c83: +1 x32 -7 x278 <= +0
 c84: +1 x33 -7 x279 <= +0
 c85: +1 x34 -7 x280 <= +0
 c86: +1 x35 -7 x281 <= +0
 c87: +1 x36 -7 x282 <= +0
 c88: +1 x37 -7 x283 <= +0
 c89: +1 x38 -7 x284 <= +0
 c90: +1 x39 -7 x285 <= +0
 c91: +1 x40 -7 x286 <= +0
 c92: +1 x41 -7 x292 <= +0
 c93: +1 x42 -7 x293 <= +0
 c94: +1 x43 -7 x294 <= +0
 c95: +1 x44 -7 x295 <= +0
 c96: +1 x45 -7 x296 <= +0
 c97: +1 x46 -7 x297 <= +0
 c98: +1 x47 -7 x298 <= +0
 c99: +1 x48 -7 x299 <= +0
 c100: +1 x49 -7 x300 <= +0
 c101: +1 x50 -7 x301 <= +0
 c102: +1 x51 -7 x307 <= +0
 c103: +1 x52 -7 x308 <= +0
 c104: +1 x53 -7 x309 <= +0
 c105: +1 x54 -7 x310 <= +0
 c106: +1 x55 -7 x311 <= +0
 c107: +1 x56 -7 x312 <= +0
 c108: +1 x57 -7 x313 <= +0
 c109: +1 x58 -7 x314 <= +0
 c110: +1 x59 -7 x315 <= +0
 c111: +1 x60 -7 x316 <= +0
 c112: +1 x61 -7 x317 <= +0
 c113: +1 x62 -7 x318 <= +0
 c114: +1 x63 -7 x319 <= +0
 c115: +1 x64 -7 x320 <= +0
 c116: +1 x65 -7 x321 <= +0
 c117: +1 x66 -7 x322 <= +0
 c118: +1 x67 -7 x323 <= +0
 c119: +1 x68 -7 x324 <= +0
 c120: +1 x69 -7 x325 <= +0
 c121: +1 x70 -7 x326 <= +0
 c122: +1 x71 -7 x327 <= +0
 c123: +1 x72 -7 x328 <= +0
 c124: +1 x73 -7 x329 <= +0
 c125: +1 x74 -7 x330 <= +0
 c126: +1 x75 -7 x331 <= +0
 c127: +1 x76 -7 x337 <= +0
 c128: +1 x77 -7 x338 <= +0
 c129: +1 x78 -7 x339 <= +0
 c130: +1 x79 -7 x340 <= +0
 c131: +1 x80 -7 x341 <= +0
 c132: +1 x81 -7 x342 <= +0
 c133: +1 x82 -7 x343 <= +0
 c134: +1 x83 -7 x344 <= +0
 c135: +1 x84 -7 x345 <= +0
 c136: +1 x85 -7 x346 <= +0
 c137: +1 x86 -7 x347 <= +0
 c138: +1 x87 -7 x348 <= +0
 c139: +1 x88 -7 x349 <= +0
 c140: +1 x89 -7 x350 <= +0
 c141: +1 x90 -7 x351 <= +0
 c142: +1 x91 -7 x357 <= +0
 c143: +1 x92 -7 x358 <= +0
 c144: +1 x93 -7 x359 <= +0
 c145: +1 x94 -7 x360 <= +0
 c146: +1 x95 -7 x361 <= +0
 c147: +1 x96 -7 x362 <= +0
 c148: +1 x97 -7 x363 <= +0
 c149: +1 x98 -7 x364 <= +0
 c150: +1 x99 -7 x365 <= +0
 c151: +1 x100 -7 x366 <= +0
 c152: +1 x101 -7 x367 <= +0
 c153: +1 x102 -7 x368 <= +0
 c154: +1 x103 -7 x369 <= +0
 c155: +1 x104 -7 x370 <= +0
 c156: +1 x105 -7 x371 <= +0
 c157: +1 x106 -7 x377 <= +0
 c158: +1 x107 -7 x378 <= +0
 c159: +1 x108 -7 x379 <= +0
 c160: +1 x109 -7 x380 <= +0
 c161: +1 x110 -7 x381 <= +0
 c162: +1 x111 -7 x382 <= +0
 c163: +1 x112 -7 x383 <= +0
 c164: +1 x113 -7 x384 <= +0
 c165: +1 x114 -7 x385 <= +0
 c166: +1 x115 -7 x386 <= +0
 c167: +1 x116 -7 x392 <= +0
 c168: +1 x117 -7 x393 <= +0
 c169: +1 x118 -7 x394 <= +0
 c170: +1 x119 -7 x395 <= +0
 c171: +1 x120 -7 x396 <= +0
 c172: +1 x121 -7 x397 <= +0
 c173: +1 x122 -7 x398 <= +0
 c174: +1 x123 -7 x399 <= +0
 c175: +1 x124 -7 x400 <= +0
 c176: +1 x125 -7 x401 <= +0
 c177: +1 x126 -7 x402 <= +0
 c178: +1 x127 -7 x403 <= +0
 c179: +1 x128 -7 x404 <= +0
 c180: +1 x129 -7 x405 <= +0
 c181: +1 x130 -7 x406 <= +0
 c182: +1 x131 -7 x412 <= +0
 c183: +1 x132 -7 x413 <= +0
 c184: +1 x133 -7 x414 <= +0
 c185: +1 x134 -7 x415 <= +0
 c186: +1 x135 -7 x416 <= +0
 c187: +1 x136 -7 x417 <= +0
 c188: +1 x137 -7 x418 <= +0
 c189: +1 x138 -7 x419 <= +0
 c190: +1 x139 -7 x420 <= +0
 c191: +1 x140 -7 x421 <= +0
 c192: +1 x141 -7 x427 <= +0
 c193: +1 x142 -7 x428 <= +0
 c194: +1 x143 -7 x429 <= +0
 c195: +1 x144 -7 x430 <= +0
 c196: +1 x145 -7 x431 <= +0
 c197: +1 x146 -7 x432 <= +0
 c198: +1 x147 -7 x433 <= +0
 c199: +1 x148 -7 x434 <= +0
 c200: +1 x149 -7 x435 <= +0
 c201: +1 x150 -7 x436 <= +0
 c202: +1 x151 -7 x437 <= +0
 c203: +1 x152 -7 x438 <= +0
 c204: +1 x153 -7 x439 <= +0
 c205: +1 x154 -7 x440 <= +0
 c206: +1 x155 -7 x441 <= +0
 c207: +1 x156 -7 x447 <= +0
 c208: +1 x157 -7 x448 <= +0
 c209: +1 x158 -7 x449 <= +0
 c210: +1 x159 -7 x450 <= +0
 c211: +1 x160 -7 x451 <= +0
 c212: +1 x161 -7 x452 <= +0
 c213: +1 x162 -7 x453 <= +0
 c214: +1 x163 -7 x454 <= +0
 c215: +1 x164 -7 x455 <= +0
 c216: +1 x165 -7 x456 <= +0
 c217: +1 x166 -7 x457 <= +0
 c218: +1 x167 -7 x458 <= +0
 c219: +1 x168 -7 x459 <= +0
 c220: +1 x169 -7 x460 <= +0
 c221: +1 x170 -7 x461 <= +0
 c222: +1 x171 -7 x467 <= +0
 c223: +1 x172 -7 x468 <= +0
 c224: +1 x173 -7 x469 <= +0
 c225: +1 x174 -7 x470 <= +0
 c226: +1 x175 -7 x471 <= +0
 c227: +1 x176 -7 x472 <= +0
 c228: +1 x177 -7 x473 <= +0
 c229: +1 x178 -7 x474 <= +0
 c230: +1 x179 -7 x475 <= +0
 c231: +1 x180 -7 x476 <= +0
 c232: +1 x181 -7 x477 <= +0
 c233: +1 x182 -7 x478 <= +0
 c234: +1 x183 -7 x479 <= +0
 c235: +1 x184 -7 x480 <= +0
 c236: +1 x185 -7 x481 <= +0
 c237: +1 x186 -7 x482 <= +0
 c238: +1 x187 -7 x483 <= +0
 c239: +1 x188 -7 x484 <= +0
 c240: +1 x189 -7 x485 <= +0
 c241: +1 x190 -7 x486 <= +0
 c242: +1 x191 -7 x487 <= +0
 c243: +1 x192 -7 x488 <= +0
 c244: +1 x193 -7 x489 <= +0
 c245: +1 x194 -7 x490 <= +0
 c246: +1 x195 -7 x491 <= +0
 c247: +1 x196 -7 x497 <= +0
 c248: +1 x197 -7 x498 <= +0
 c249: +1 x198 -7 x499 <= +0
 c250: +1 x199 -7 x500 <= +0
 c251: +1 x200 -7 x501 <= +0
 c252: +1 x201 -7 x507 <= +0
 c253: +1 x202 -7 x508 <= +0
 c254: +1 x203 -7 x509 <= +0
 c255: +1 x204 -7 x510 <= +0
 c256: +1 x205 -7 x511 <= +0
 c257: +1 x206 -7 x512 <= +0
 c258: +1 x207 -7 x513 <= +0
 c259: +1 x208 -7 x514 <= +0
 c260: +1 x209 -7 x515 <= +0
 c261: +1 x210 -7 x516 <= +0
 c262: +1 x211 -7 x517 <= +0
 c263: +1 x212 -7 x518 <= +0
 c264: +1 x213 -7 x519 <= +0
 c265: +1 x214 -7 x520 <= +0
 c266: +1 x215 -7 x521 <= +0
 c267: +1 x216 -7 x522 <= +0
 c268: +1 x217 -7 x523 <= +0
 c269: +1 x218 -7 x524 <= +0
 c270: +1 x219 -7 x525 <= +0
 c271: +1 x220 -7 x526 <= +0
 c272: +1 x221 -7 x527 <= +0
 c273: +1 x222 -7 x528 <= +0
 c274: +1 x223 -7 x529 <= +0
 c275: +1 x224 -7 x530 <= +0
 c276: +1 x225 -7 x531 <= +0
 c277: +1 x226 -7 x537 <= +0
 c278: +1 x227 -7 x538 <= +0
 c279: +1 x228 -7 x539 <= +0
 c280: +1 x229 -7 x540 <= +0
 c281: +1 x230 -7 x541 <= +0
 c282: +1 x231 -7 x542 <= +0
 c283: +1 x232 -7 x543 <= +0
 c284: +1 x233 -7 x544 <= +0
 c285: +1 x234 -7 x545 <= +0
 c286: +1 x235 -7 x546 <= +0
 c287: +1 x236 -7 x547 <= +0
 c288: +1 x237 -7 x548 <= +0
 c289: +1 x238 -7 x549 <= +0
 c290: +1 x239 -7 x550 <= +0
 c291: +1 x240 -7 x551 <= +0
Bounds
 0 <= x555 <= 1
 0 <= x242 <= 1
 0 <= x243 <= 1
 0 <= x244 <= 1
 0 <= x245 <= 1
 0 <= x246 <= 1
 0 <= x247 <= 1
 0 <= x248 <= 1
 0 <= x249 <= 1
 0 <= x250 <= 1
 0 <= x251 <= 1
 0 <= x252 <= 1
 0 <= x253 <= 1
 0 <= x254 <= 1
 0 <= x255 <= 1
 0 <= x256 <= 1
 0 <= x257 <= 1
 0 <= x258 <= 1
 0 <= x259 <= 1
 0 <= x260 <= 1
 0 <= x261 <= 1
 0 <= x262 <= 1
 0 <= x263 <= 1
 0 <= x264 <= 1
 0 <= x265 <= 1
 0 <= x266 <= 1
 0 <= x267 <= 1
 0 <= x268 <= 1
 0 <= x269 <= 1
 0 <= x270 <= 1
 0 <= x271 <= 1
 0 <= x272 <= 1
 0 <= x273 <= 1
 0 <= x274 <= 1
 0 <= x275 <= 1
 0 <= x276 <= 1
 0 <= x277 <= 1
 0 <= x278 <= 1
 0 <= x279 <= 1
 0 <= x280 <= 1
 0 <= x281 <= 1
 0 <= x282 <= 1
 0 <= x283 <= 1
 0 <= x284 <= 1
 0 <= x285 <= 1
 0 <= x286 <= 1
 0 <= x287 <= 1
 0 <= x288 <= 1
 0 <= x289 <= 1
 0 <= x290 <= 1
 0 <= x291 <= 1
 0 <= x292 <= 1
 0 <= x293 <= 1
 0 <= x294 <= 1
 0 <= x295 <= 1
 0 <= x296 <= 1
 0 <= x297 <= 1
 0 <= x298 <= 1
 0 <= x299 <= 1
 0 <= x300 <= 1
 0 <= x301 <= 1
 0 <= x554 <= 1
 0 <= x553 <= 1
 0 <= x552 <= 1
 0 <= x551 <= 1
 0 <= x550 <= 1
 0 <= x549 <= 1
 0 <= x548 <= 1
 0 <= x547 <= 1
 0 <= x546 <= 1
 0 <= x545 <= 1
 0 <= x544 <= 1
 0 <= x543 <= 1
 0 <= x542 <= 1
 0 <= x541 <= 1
 0 <= x540 <= 1
 0 <= x317 <= 1
 0 <= x318 <= 1
 0 <= x319 <= 1
 0 <= x320 <= 1
 0 <= x321 <= 1
 0 <= x322 <= 1
 0 <= x323 <= 1
 0 <= x324 <= 1
 0 <= x325 <= 1
 0 <= x326 <= 1
 0 <= x327 <= 1
 0 <= x328 <= 1
 0 <= x329 <= 1
 0 <= x330 <= 1
 0 <= x331 <= 1
 0 <= x332 <= 1
 0 <= x333 <= 1
 0 <= x334 <= 1
 0 <= x335 <= 1
 0 <= x336 <= 1
 0 <= x337 <= 1
 0 <= x338 <= 1
 0 <= x339 <= 1
 0 <= x340 <= 1
 0 <= x341 <= 1
 0 <= x342 <= 1
 0 <= x343 <= 1
 0 <= x344 <= 1
 0 <= x345 <= 1
 0 <= x346 <= 1
 0 <= x347 <= 1
 0 <= x348 <= 1
 0 <= x349 <= 1
 0 <= x350 <= 1
 0 <= x351 <= 1
 0 <= x352 <= 1
 0 <= x353 <= 1
 0 <= x354 <= 1
 0 <= x355 <= 1
 0 <= x356 <= 1
 0 <= x357 <= 1
 0 <= x358 <= 1
 0 <= x359 <= 1
 0 <= x360 <= 1
 0 <= x361 <= 1
 0 <= x362 <= 1
 0 <= x363 <= 1
 0 <= x364 <= 1
 0 <= x365 <= 1
 0 <= x366 <= 1
 0 <= x367 <= 1
 0 <= x368 <= 1
 0 <= x369 <= 1
 0 <= x370 <= 1
 0 <= x371 <= 1
 0 <= x372 <= 1
 0 <= x373 <= 1
 0 <= x374 <= 1
 0 <= x375 <= 1
 0 <= x376 <= 1
 0 <= x377 <= 1
 0 <= x378 <= 1
 0 <= x379 <= 1
 0 <= x380 <= 1
 0 <= x381 <= 1
 0 <= x382 <= 1
 0 <= x383 <= 1
 0 <= x384 <= 1
 0 <= x385 <= 1
 0 <= x386 <= 1
 0 <= x387 <= 1
 0 <= x388 <= 1
 0 <= x389 <= 1
 0 <= x390 <= 1
 0 <= x391 <= 1
 0 <= x392 <= 1
 0 <= x393 <= 1
 0 <= x394 <= 1
 0 <= x395 <= 1
 0 <= x396 <= 1
 0 <= x397 <= 1
 0 <= x398 <= 1
 0 <= x399 <= 1
 0 <= x400 <= 1
 0 <= x401 <= 1
 0 <= x402 <= 1
 0 <= x403 <= 1
 0 <= x404 <= 1
 0 <= x405 <= 1
 0 <= x406 <= 1
 0 <= x407 <= 1
 0 <= x408 <= 1
 0 <= x409 <= 1
 0 <= x410 <= 1
 0 <= x411 <= 1
 0 <= x412 <= 1
 0 <= x413 <= 1
 0 <= x414 <= 1
 0 <= x415 <= 1
 0 <= x416 <= 1
 0 <= x417 <= 1
 0 <= x418 <= 1
 0 <= x419 <= 1
 0 <= x420 <= 1
 0 <= x421 <= 1
 0 <= x422 <= 1
 0 <= x423 <= 1
 0 <= x424 <= 1
 0 <= x425 <= 1
 0 <= x426 <= 1
 0 <= x427 <= 1
 0 <= x428 <= 1
 0 <= x429 <= 1
 0 <= x430 <= 1
 0 <= x431 <= 1
 0 <= x432 <= 1
 0 <= x433 <= 1
 0 <= x434 <= 1
 0 <= x435 <= 1
 0 <= x436 <= 1
 0 <= x437 <= 1
 0 <= x438 <= 1
 0 <= x439 <= 1
 0 <= x440 <= 1
 0 <= x441 <= 1
 0 <= x442 <= 1
 0 <= x443 <= 1
 0 <= x444 <= 1
 0 <= x445 <= 1
 0 <= x446 <= 1
 0 <= x447 <= 1
 0 <= x448 <= 1
 0 <= x449 <= 1
 0 <= x450 <= 1
 0 <= x451 <= 1
 0 <= x452 <= 1
 0 <= x453 <= 1
 0 <= x454 <= 1
 0 <= x455 <= 1
 0 <= x456 <= 1
 0 <= x457 <= 1
 0 <= x458 <= 1
 0 <= x459 <= 1
 0 <= x460 <= 1
 0 <= x461 <= 1
 0 <= x462 <= 1
 0 <= x463 <= 1
 0 <= x464 <= 1
 0 <= x465 <= 1
 0 <= x466 <= 1
 0 <= x467 <= 1
 0 <= x468 <= 1
 0 <= x469 <= 1
 0 <= x470 <= 1
 0 <= x471 <= 1
 0 <= x472 <= 1
 0 <= x473 <= 1
 0 <= x474 <= 1
 0 <= x475 <= 1
 0 <= x476 <= 1
 0 <= x477 <= 1
 0 <= x478 <= 1
 0 <= x479 <= 1
 0 <= x480 <= 1
 0 <= x481 <= 1
 0 <= x482 <= 1
 0 <= x483 <= 1
 0 <= x484 <= 1
 0 <= x485 <= 1
 0 <= x486 <= 1
 0 <= x487 <= 1
 0 <= x488 <= 1
 0 <= x489 <= 1
 0 <= x490 <= 1
 0 <= x491 <= 1
 0 <= x492 <= 1
 0 <= x493 <= 1
 0 <= x494 <= 1
 0 <= x495 <= 1
 0 <= x496 <= 1
 0 <= x497 <= 1
 0 <= x498 <= 1
 0 <= x499 <= 1
 0 <= x500 <= 1
 0 <= x501 <= 1
 0 <= x502 <= 1
 0 <= x503 <= 1
 0 <= x504 <= 1
 0 <= x505 <= 1
 0 <= x506 <= 1
 0 <= x507 <= 1
 0 <= x508 <= 1
 0 <= x509 <= 1
 0 <= x510 <= 1
 0 <= x511 <= 1
 0 <= x512 <= 1
 0 <= x513 <= 1
 0 <= x514 <= 1
 0 <= x515 <= 1
 0 <= x516 <= 1
 0 <= x517 <= 1
 0 <= x518 <= 1
 0 <= x519 <= 1
 0 <= x520 <= 1
 0 <= x521 <= 1
 0 <= x522 <= 1
 0 <= x523 <= 1
 0 <= x524 <= 1
 0 <= x525 <= 1
 0 <= x526 <= 1
 0 <= x527 <= 1
 0 <= x528 <= 1
 0 <= x529 <= 1
 0 <= x530 <= 1
 0 <= x531 <= 1
 0 <= x532 <= 1
 0 <= x533 <= 1
 0 <= x534 <= 1
 0 <= x535 <= 1
 0 <= x536 <= 1
 0 <= x537 <= 1
 0 <= x538 <= 1
 0 <= x539 <= 1
 0 <= x556 <= 1
 0 <= x315 <= 2
 0 <= x314 <= 2
 0 <= x313 <= 2
 0 <= x312 <= 2
 0 <= x311 <= 2
 0 <= x310 <= 2
 0 <= x309 <= 2
 0 <= x308 <= 2
 0 <= x307 <= 2
 0 <= x306 <= 2
 0 <= x305 <= 2
 0 <= x304 <= 2
 0 <= x303 <= 2
 0 <= x302 <= 2
 0 <= x316 <= 2
 x241 free
Binaries
 x555 x242 x243 x244 x245 x246 x247 x248 x249 x250 x251 x252 x253 x254 x255 x256 x257 x258 x259 x260 x261
 x262 x263 x264 x265 x266 x267 x268 x269 x270 x271 x272 x273 x274 x275 x276 x277 x278 x279 x280 x281 x282
 x283 x284 x285 x286 x287 x288 x289 x290 x291 x292 x293 x294 x295 x296 x297 x298 x299 x300 x301 x554 x553
 x552 x551 x550 x549 x548 x547 x546 x545 x544 x543 x542 x541 x540 x317 x318 x319 x320 x321 x322 x323 x324
 x325 x326 x327 x328 x329 x330 x331 x332 x333 x334 x335 x336 x337 x338 x339 x340 x341 x342 x343 x344 x345
 x346 x347 x348 x349 x350 x351 x352 x353 x354 x355 x356 x357 x358 x359 x360 x361 x362 x363 x364 x365 x366
 x367 x368 x369 x370 x371 x372 x373 x374 x375 x376 x377 x378 x379 x380 x381 x382 x383 x384 x385 x386 x387
 x388 x389 x390 x391 x392 x393 x394 x395 x396 x397 x398 x399 x400 x401 x402 x403 x404 x405 x406 x407 x408
 x409 x410 x411 x412 x413 x414 x415 x416 x417 x418 x419 x420 x421 x422 x423 x424 x425 x426 x427 x428 x429
 x430 x431 x432 x433 x434 x435 x436 x437 x438 x439 x440 x441 x442 x443 x444 x445 x446 x447 x448 x449 x450
 x451 x452 x453 x454 x455 x456 x457 x458 x459 x460 x461 x462 x463 x464 x465 x466 x467 x468 x469 x470 x471
 x472 x473 x474 x475 x476 x477 x478 x479 x480 x481 x482 x483 x484 x485 x486 x487 x488 x489 x490 x491 x492
 x493 x494 x495 x496 x497 x498 x499 x500 x501 x502 x503 x504 x505 x506 x507 x508 x509 x510 x511 x512 x513
 x514 x515 x516 x517 x518 x519 x520 x521 x522 x523 x524 x525 x526 x527 x528 x529 x530 x531 x532 x533 x534
 x535 x536 x537 x538 x539 x556
Generals
 x315 x314 x313 x312 x311 x310 x309 x308 x307 x306 x305 x304 x303 x302 x316
End
